w = 37;
n = 27;
measures = [|3, 3,
|3, 4,
|3, 5,
|3, 6,
|3, 7,
|3, 8,
|3, 9,
|3, 11,
|3, 12,
|3, 13,
|3, 14,
|3, 17,
|3, 18,
|3, 21,
|4, 3,
|4, 4,
|4, 5,
|4, 6,
|4, 10,
|4, 22,
|4, 24,
|5, 3,
|5, 4,
|5, 6,
|5, 10,
|5, 14,
|12, 37,
|];
initial_x = [0, 3, 6, 9, 12, 15, 18, 21, 24, 27, 30, 33, 0, 3, 6, 10, 14, 18, 22, 26, 30, 0, 5, 10, 15, 20, 25];
initial_y = [0, 0, 0, 0, 0, 0, 0, 0, 0, 0, 0, 0, 17, 17, 17, 17, 17, 17, 17, 17, 17, 41, 41, 41, 41, 41, 41];